2212.89
0 1 9 3 4 2 7 8 46 17 91 5 6 0
0 14 15 55 12 10 11 18 13 0
0 20 19 16 22 23 25 24 21 0
0 31 36 30 29 26 28 27 0
0 37 38 39 34 35 33 32 0
0 50 51 47 45 92 44 42 43 41 40 0
0 49 48 60 52 54 53 0
0 63 64 62 61 59 57 56 58 0
0 66 65 68 67 69 0
0 74 75 72 73 76 77 78 71 70 0
0 96 84 83 82 88 90 81 79 80 0
0 98 85 86 87 0
0 99 97 95 93 94 89 0
0 100 0
